proyfinal/src/viki/013/andrea/andrea-localstore/experimentInOfficeAgust.take6/worker_3/cfa626b9-9e2b-4cde-9222-b9a641efc5dc.als.cnf.out
Reading from standard input... Use '--help' for help.
============================[ Problem Statistics ]=============================
|                                                                             |
|  Number of variables:         87638                                         |
|  Number of clauses:          161767                                         |
|  Parse time:                   0.03 s                                       |
|                                                                             |
============================[ Search Statistics ]==============================
| Conflicts |          ORIGINAL         |          LEARNT          | Progress |
|           |    Vars  Clauses Literals |    Limit  Clauses Lit/Cl |          |
===============================================================================
|       100 |   63235   108218   270528 |    39679      100     14 | 27.845 % |
|       250 |   63235   108218   270528 |    43647      250     15 | 27.845 % |
|       475 |   63235   108218   270528 |    48012      475     27 | 27.845 % |
|       812 |   63234   108174   270438 |    52813      811     57 | 27.846 % |
|      1318 |   63234   108174   270438 |    58095     1317     59 | 27.846 % |
|      2077 |   63231   108171   270432 |    63904     2073     83 | 27.850 % |
|      3216 |   63222   108132   270336 |    70295     3210     83 | 27.860 % |
|      4924 |   63213   108099   270248 |    77324     4916     88 | 27.870 % |
|      7486 |   50394    69925   176399 |    85057     7221     93 | 42.498 % |
|     11330 |   50220    69270   174791 |    93563    11043     79 | 42.696 % |
|     17096 |   49767    67528   170570 |   102919    14636     67 | 43.213 % |
===============================================================================
restarts              : 69
conflicts             : 20027          (6706 /sec)
decisions             : 67778          (0.00 % random) (22694 /sec)
propagations          : 29952925       (10029172 /sec)
conflict literals     : 1282793        (50.37 % deleted)
Memory used           : 39.69 MB
CPU time              : 2.98658 s

UNSATISFIABLE
